p edge 50 613
e 1 7
e 1 9
e 1 10
e 1 13
e 1 14
e 1 15
e 1 20
e 1 21
e 1 22
e 1 26
e 1 27
e 1 28
e 1 30
e 1 31
e 1 32
e 1 34
e 1 38
e 1 39
e 1 43
e 1 44
e 1 45
e 1 47
e 1 48
e 2 5
e 2 10
e 2 12
e 2 14
e 2 16
e 2 17
e 2 21
e 2 25
e 2 26
e 2 29
e 2 33
e 2 34
e 2 35
e 2 36
e 2 37
e 2 41
e 2 42
e 2 45
e 2 46
e 2 48
e 2 49
e 2 50
e 3 5
e 3 6
e 3 7
e 3 8
e 3 9
e 3 10
e 3 13
e 3 15
e 3 16
e 3 20
e 3 21
e 3 24
e 3 25
e 3 26
e 3 27
e 3 28
e 3 29
e 3 30
e 3 35
e 3 40
e 3 42
e 3 43
e 3 44
e 3 46
e 3 48
e 3 49
e 3 50
e 4 7
e 4 12
e 4 15
e 4 16
e 4 17
e 4 20
e 4 22
e 4 27
e 4 30
e 4 33
e 4 36
e 4 37
e 4 46
e 4 47
e 4 48
e 4 49
e 4 50
e 5 6
e 5 10
e 5 11
e 5 12
e 5 15
e 5 17
e 5 19
e 5 20
e 5 23
e 5 24
e 5 25
e 5 29
e 5 30
e 5 31
e 5 32
e 5 33
e 5 34
e 5 36
e 5 37
e 5 38
e 5 43
e 5 44
e 5 46
e 5 47
e 5 49
e 5 50
e 6 9
e 6 10
e 6 12
e 6 14
e 6 15
e 6 16
e 6 18
e 6 21
e 6 22
e 6 23
e 6 26
e 6 27
e 6 30
e 6 31
e 6 34
e 6 35
e 6 37
e 6 40
e 6 41
e 6 44
e 6 45
e 6 46
e 6 47
e 6 48
e 6 49
e 7 9
e 7 11
e 7 14
e 7 18
e 7 19
e 7 21
e 7 22
e 7 26
e 7 27
e 7 32
e 7 33
e 7 35
e 7 36
e 7 37
e 7 38
e 7 39
e 7 42
e 7 44
e 7 46
e 7 48
e 7 49
e 8 10
e 8 13
e 8 14
e 8 16
e 8 18
e 8 19
e 8 30
e 8 31
e 8 32
e 8 34
e 8 35
e 8 36
e 8 37
e 8 40
e 8 41
e 8 42
e 8 43
e 8 44
e 8 45
e 8 46
e 8 50
e 9 10
e 9 12
e 9 13
e 9 14
e 9 15
e 9 16
e 9 17
e 9 18
e 9 19
e 9 20
e 9 23
e 9 25
e 9 27
e 9 29
e 9 30
e 9 31
e 9 32
e 9 33
e 9 35
e 9 37
e 9 38
e 9 39
e 9 40
e 9 41
e 9 43
e 9 45
e 9 46
e 10 12
e 10 14
e 10 17
e 10 18
e 10 19
e 10 20
e 10 21
e 10 22
e 10 26
e 10 29
e 10 32
e 10 33
e 10 35
e 10 36
e 10 37
e 10 38
e 10 40
e 10 42
e 10 45
e 10 49
e 11 13
e 11 16
e 11 19
e 11 20
e 11 21
e 11 23
e 11 25
e 11 26
e 11 27
e 11 28
e 11 29
e 11 31
e 11 33
e 11 34
e 11 35
e 11 36
e 11 37
e 11 41
e 11 42
e 11 43
e 11 45
e 11 47
e 11 50
e 12 13
e 12 17
e 12 19
e 12 20
e 12 25
e 12 27
e 12 28
e 12 29
e 12 31
e 12 34
e 12 38
e 12 39
e 12 40
e 12 43
e 12 45
e 12 47
e 12 49
e 12 50
e 13 14
e 13 17
e 13 22
e 13 24
e 13 26
e 13 28
e 13 29
e 13 30
e 13 32
e 13 35
e 13 36
e 13 38
e 13 39
e 13 41
e 13 42
e 13 44
e 13 45
e 13 46
e 13 49
e 13 50
e 14 15
e 14 21
e 14 22
e 14 28
e 14 36
e 14 39
e 14 40
e 14 41
e 14 42
e 14 46
e 14 48
e 14 49
e 14 50
e 15 16
e 15 19
e 15 20
e 15 22
e 15 25
e 15 26
e 15 27
e 15 30
e 15 31
e 15 34
e 15 36
e 15 37
e 15 40
e 15 42
e 15 43
e 15 44
e 15 47
e 15 49
e 15 50
e 16 17
e 16 21
e 16 23
e 16 24
e 16 26
e 16 27
e 16 29
e 16 34
e 16 37
e 16 39
e 16 41
e 16 44
e 16 45
e 16 48
e 17 18
e 17 19
e 17 20
e 17 21
e 17 22
e 17 23
e 17 24
e 17 25
e 17 26
e 17 27
e 17 30
e 17 31
e 17 32
e 17 33
e 17 35
e 17 36
e 17 38
e 17 39
e 17 41
e 17 43
e 17 45
e 17 46
e 17 47
e 17 50
e 18 22
e 18 24
e 18 25
e 18 27
e 18 28
e 18 31
e 18 32
e 18 35
e 18 36
e 18 38
e 18 42
e 18 43
e 18 44
e 18 46
e 18 47
e 18 49
e 19 21
e 19 26
e 19 27
e 19 28
e 19 29
e 19 32
e 19 33
e 19 35
e 19 37
e 19 40
e 19 41
e 19 48
e 19 49
e 20 21
e 20 26
e 20 28
e 20 29
e 20 30
e 20 31
e 20 33
e 20 34
e 20 35
e 20 37
e 20 38
e 20 39
e 20 43
e 20 45
e 20 46
e 20 49
e 20 50
e 21 27
e 21 30
e 21 32
e 21 33
e 21 34
e 21 35
e 21 37
e 21 43
e 21 45
e 22 23
e 22 24
e 22 33
e 22 34
e 22 36
e 22 39
e 22 40
e 22 43
e 22 44
e 22 45
e 22 46
e 22 47
e 22 49
e 22 50
e 23 25
e 23 26
e 23 31
e 23 32
e 23 34
e 23 36
e 23 37
e 23 38
e 23 39
e 23 41
e 23 44
e 23 45
e 23 46
e 23 49
e 23 50
e 24 25
e 24 27
e 24 29
e 24 31
e 24 32
e 24 33
e 24 36
e 24 38
e 24 39
e 24 40
e 24 42
e 24 43
e 24 44
e 24 45
e 24 46
e 24 48
e 24 49
e 25 29
e 25 35
e 25 38
e 25 39
e 25 41
e 25 43
e 25 44
e 25 45
e 25 46
e 25 47
e 26 28
e 26 29
e 26 30
e 26 31
e 26 32
e 26 34
e 26 36
e 26 37
e 26 38
e 26 42
e 26 43
e 26 44
e 26 45
e 26 48
e 26 49
e 26 50
e 27 28
e 27 29
e 27 33
e 27 39
e 27 41
e 27 43
e 27 44
e 27 45
e 27 47
e 27 48
e 27 50
e 28 30
e 28 33
e 28 35
e 28 36
e 28 38
e 28 43
e 28 44
e 28 46
e 29 31
e 29 33
e 29 34
e 29 38
e 29 39
e 29 40
e 29 43
e 29 44
e 29 46
e 29 47
e 30 31
e 30 34
e 30 35
e 30 39
e 30 42
e 30 44
e 30 46
e 30 48
e 30 49
e 30 50
e 31 35
e 31 41
e 31 45
e 31 46
e 31 47
e 31 48
e 32 35
e 32 37
e 32 38
e 32 39
e 32 45
e 32 46
e 32 47
e 32 48
e 32 50
e 33 36
e 33 37
e 33 38
e 33 40
e 33 41
e 33 43
e 33 44
e 33 46
e 33 48
e 33 49
e 33 50
e 34 35
e 34 36
e 34 37
e 34 39
e 34 41
e 34 42
e 34 44
e 34 48
e 34 50
e 35 37
e 35 38
e 35 40
e 35 44
e 35 46
e 35 49
e 36 39
e 36 40
e 36 41
e 36 46
e 36 49
e 37 41
e 37 42
e 37 45
e 37 46
e 37 50
e 38 39
e 38 41
e 38 42
e 38 44
e 38 45
e 38 47
e 38 49
e 39 41
e 39 45
e 39 47
e 39 48
e 39 49
e 40 41
e 40 44
e 40 46
e 40 50
e 41 42
e 41 44
e 41 46
e 41 47
e 41 49
e 41 50
e 42 46
e 43 44
e 43 49
e 44 46
e 44 48
e 44 49
e 45 47
e 45 49
e 45 50
e 46 50
e 47 48
e 47 49
e 47 50
e 48 50
